jobs  (incl. supersource/sink ):	52
RESOURCES
- renewable                 : 4 R
- nonrenewable              : 2 N
- doubly constrained        : 0 D
************************************************************************
PRECEDENCE RELATIONS:
jobnr.    #modes  #successors   successors
1	1	19		2 3 4 5 6 7 8 10 11 12 13 14 15 16 18 19 20 26 32 
2	9	7		49 33 29 23 22 17 9 
3	9	11		51 50 45 40 33 31 30 28 27 25 23 
4	9	11		48 46 45 43 39 34 29 28 27 24 22 
5	9	11		48 46 45 44 43 39 34 33 27 22 21 
6	9	10		49 46 45 43 39 34 33 28 22 21 
7	9	10		50 49 47 45 43 38 34 33 23 21 
8	9	10		50 49 45 44 40 39 38 34 27 21 
9	9	10		50 48 46 45 39 38 37 34 27 24 
10	9	9		48 46 45 44 39 37 33 29 24 
11	9	10		51 50 49 45 44 43 41 38 35 24 
12	9	7		50 43 40 34 33 29 21 
13	9	8		48 45 39 37 36 33 29 28 
14	9	10		50 49 47 44 43 42 39 38 37 33 
15	9	8		49 46 45 40 38 37 34 27 
16	9	6		43 40 39 37 36 27 
17	9	5		43 39 37 34 28 
18	9	5		43 39 36 33 28 
19	9	6		48 46 43 38 36 35 
20	9	4		40 39 36 29 
21	9	5		42 41 37 36 35 
22	9	5		51 40 38 37 36 
23	9	4		48 46 42 36 
24	9	3		42 40 36 
25	9	3		41 39 37 
26	9	3		46 37 35 
27	9	2		47 35 
28	9	2		44 41 
29	9	2		38 35 
30	9	2		49 43 
31	9	2		38 37 
32	9	2		47 35 
33	9	1		35 
34	9	1		36 
35	9	1		52 
36	9	1		52 
37	9	1		52 
38	9	1		52 
39	9	1		52 
40	9	1		52 
41	9	1		52 
42	9	1		52 
43	9	1		52 
44	9	1		52 
45	9	1		52 
46	9	1		52 
47	9	1		52 
48	9	1		52 
49	9	1		52 
50	9	1		52 
51	9	1		52 
52	1	0		
************************************************************************
REQUESTS/DURATIONS
jobnr.	mode	dur	R1	R2	R3	R4	N1	N2	
------------------------------------------------------------------------
1	1	0	0	0	0	0	0	0	
2	1	1	3	4	3	2	11	15	
	2	9	2	4	2	2	11	13	
	3	17	2	4	2	2	9	12	
	4	18	2	4	2	2	8	10	
	5	19	1	4	1	2	8	8	
	6	20	1	4	1	2	6	6	
	7	22	1	4	1	2	5	6	
	8	24	1	4	1	2	5	4	
	9	28	1	4	1	2	3	2	
3	1	8	4	2	2	4	20	18	
	2	11	4	2	2	4	19	17	
	3	12	4	2	2	4	19	16	
	4	13	4	2	2	3	18	14	
	5	14	3	2	2	2	18	13	
	6	18	3	2	2	2	17	12	
	7	20	3	2	2	2	16	10	
	8	21	3	2	2	1	16	8	
	9	30	3	2	2	1	16	7	
4	1	1	3	3	2	4	25	7	
	2	2	3	3	2	4	23	6	
	3	3	3	3	2	4	23	5	
	4	13	3	2	2	4	22	6	
	5	14	3	2	1	4	20	5	
	6	16	3	2	1	4	18	4	
	7	20	3	2	1	4	18	3	
	8	23	3	1	1	4	16	3	
	9	24	3	1	1	4	15	2	
5	1	6	1	5	5	4	17	26	
	2	6	1	4	4	3	15	27	
	3	7	1	4	4	3	15	26	
	4	8	1	4	4	3	15	25	
	5	9	1	4	4	2	14	25	
	6	15	1	4	3	2	13	25	
	7	19	1	4	3	2	13	24	
	8	24	1	4	3	1	11	24	
	9	25	1	4	3	1	11	23	
6	1	4	3	3	5	2	14	26	
	2	6	3	3	4	2	13	26	
	3	11	3	3	4	2	12	21	
	4	12	2	3	4	2	11	20	
	5	13	2	3	3	1	11	17	
	6	14	2	2	3	1	11	15	
	7	18	1	2	3	1	10	11	
	8	19	1	2	2	1	9	9	
	9	27	1	2	2	1	9	8	
7	1	7	3	3	4	5	27	19	
	2	9	2	3	4	4	25	17	
	3	10	2	3	4	4	25	15	
	4	13	2	3	3	4	24	15	
	5	14	1	3	3	3	21	12	
	6	17	1	3	2	3	21	11	
	7	19	1	3	2	2	19	11	
	8	28	1	3	1	2	18	10	
	9	29	1	3	1	2	16	9	
8	1	3	3	4	4	3	26	19	
	2	7	3	4	3	3	25	16	
	3	8	3	4	3	3	25	15	
	4	10	3	4	3	3	24	12	
	5	16	2	3	3	2	21	12	
	6	18	2	3	3	2	20	10	
	7	25	2	2	3	2	18	6	
	8	26	1	2	3	2	18	5	
	9	29	1	2	3	2	17	3	
9	1	1	3	4	5	3	27	20	
	2	5	2	3	4	2	25	19	
	3	8	2	3	3	2	24	19	
	4	11	2	2	3	2	23	18	
	5	19	2	2	2	2	19	16	
	6	20	2	2	2	2	18	15	
	7	23	2	2	2	2	15	14	
	8	29	2	1	1	2	15	14	
	9	30	2	1	1	2	12	12	
10	1	1	4	1	5	2	25	24	
	2	5	4	1	4	2	24	22	
	3	13	4	1	4	2	22	22	
	4	14	4	1	4	2	19	21	
	5	15	3	1	3	2	14	19	
	6	17	3	1	3	2	13	17	
	7	19	2	1	3	2	11	15	
	8	20	2	1	3	2	8	14	
	9	23	2	1	3	2	6	14	
11	1	3	5	4	4	4	15	24	
	2	4	4	4	4	3	14	22	
	3	7	4	4	4	3	13	20	
	4	10	4	3	3	3	13	15	
	5	13	3	2	2	3	12	14	
	6	15	3	2	2	3	12	11	
	7	19	2	1	1	3	11	10	
	8	21	2	1	1	3	11	5	
	9	22	2	1	1	3	11	4	
12	1	4	2	4	4	5	21	12	
	2	5	2	4	3	4	20	12	
	3	8	2	4	3	4	20	11	
	4	9	2	4	3	4	20	10	
	5	12	1	4	3	4	20	12	
	6	20	1	4	3	3	19	12	
	7	21	1	4	3	3	19	11	
	8	22	1	4	3	3	19	10	
	9	29	1	4	3	3	19	9	
13	1	5	5	5	4	3	12	28	
	2	6	4	4	3	2	12	25	
	3	8	4	4	3	2	12	20	
	4	9	4	4	2	2	12	18	
	5	11	4	4	2	2	12	13	
	6	12	4	4	2	2	12	12	
	7	17	4	4	2	2	12	10	
	8	25	4	4	1	2	12	6	
	9	30	4	4	1	2	12	3	
14	1	1	5	3	4	4	30	25	
	2	3	5	2	4	4	25	23	
	3	7	5	2	4	4	24	23	
	4	11	5	2	4	4	20	21	
	5	15	5	1	3	3	20	21	
	6	16	5	1	3	3	17	20	
	7	18	5	1	2	3	14	18	
	8	19	5	1	2	2	13	18	
	9	26	5	1	2	2	10	17	
15	1	4	3	4	4	2	21	16	
	2	11	2	3	4	2	19	13	
	3	12	2	3	4	2	17	11	
	4	16	2	3	4	2	17	10	
	5	19	1	3	4	1	15	9	
	6	21	1	3	4	1	14	6	
	7	22	1	3	4	1	13	5	
	8	24	1	3	4	1	12	3	
	9	26	1	3	4	1	10	2	
16	1	8	2	4	2	2	26	12	
	2	10	1	3	2	2	26	11	
	3	12	1	3	2	2	26	10	
	4	13	1	3	2	2	26	9	
	5	14	1	2	2	2	26	11	
	6	24	1	2	2	2	26	10	
	7	26	1	1	2	2	26	12	
	8	27	1	1	2	2	26	11	
	9	28	1	1	2	2	26	10	
17	1	1	2	5	3	3	15	24	
	2	2	2	4	3	2	13	24	
	3	11	2	4	3	2	12	23	
	4	13	2	3	3	2	10	22	
	5	15	2	3	3	2	7	20	
	6	16	2	3	3	2	7	19	
	7	19	2	3	3	2	5	18	
	8	22	2	2	3	2	4	16	
	9	29	2	2	3	2	2	14	
18	1	5	4	4	5	4	15	7	
	2	6	4	3	4	3	12	7	
	3	7	4	3	4	3	12	6	
	4	20	4	3	4	3	11	7	
	5	22	3	3	3	3	10	6	
	6	23	3	2	3	3	7	6	
	7	24	3	2	2	3	6	6	
	8	26	2	2	2	3	6	6	
	9	28	2	2	2	3	4	6	
19	1	8	2	1	4	4	29	28	
	2	9	2	1	4	3	28	26	
	3	10	2	1	4	3	28	22	
	4	11	2	1	3	3	27	19	
	5	20	2	1	3	3	26	16	
	6	21	2	1	3	3	26	15	
	7	26	2	1	2	3	25	12	
	8	27	2	1	2	3	24	11	
	9	28	2	1	2	3	24	7	
20	1	2	3	2	2	5	29	6	
	2	5	3	2	2	4	29	6	
	3	8	3	2	2	4	28	6	
	4	17	3	2	2	4	27	6	
	5	19	2	2	2	4	27	6	
	6	22	2	2	2	4	27	5	
	7	26	1	2	2	4	26	6	
	8	27	1	2	2	4	26	5	
	9	30	1	2	2	4	25	5	
21	1	7	4	3	5	3	24	22	
	2	8	4	3	4	3	21	22	
	3	10	4	3	4	3	20	21	
	4	16	4	2	4	2	20	20	
	5	17	4	2	4	2	17	20	
	6	18	4	2	4	2	17	19	
	7	19	4	2	4	2	14	19	
	8	20	4	1	4	1	14	18	
	9	25	4	1	4	1	12	18	
22	1	11	3	3	3	1	8	27	
	2	14	3	2	3	1	7	25	
	3	17	3	2	3	1	6	21	
	4	18	3	2	3	1	6	20	
	5	23	2	1	3	1	5	18	
	6	24	2	1	3	1	4	15	
	7	25	1	1	3	1	4	13	
	8	26	1	1	3	1	4	12	
	9	28	1	1	3	1	3	11	
23	1	7	4	3	5	1	21	15	
	2	8	3	2	4	1	21	14	
	3	10	3	2	4	1	20	14	
	4	14	3	2	4	1	19	11	
	5	15	2	1	4	1	19	11	
	6	17	2	1	3	1	18	9	
	7	18	2	1	3	1	18	8	
	8	19	2	1	3	1	16	5	
	9	23	2	1	3	1	16	4	
24	1	4	3	3	2	3	14	26	
	2	13	3	2	2	3	14	25	
	3	19	3	2	2	3	12	25	
	4	21	3	2	2	3	11	24	
	5	23	3	2	2	3	10	24	
	6	24	2	1	2	3	10	23	
	7	26	2	1	2	3	8	23	
	8	27	2	1	2	3	7	21	
	9	28	2	1	2	3	6	21	
25	1	2	4	3	4	5	27	19	
	2	3	4	2	3	4	27	18	
	3	6	4	2	3	4	27	16	
	4	8	4	2	3	4	27	14	
	5	11	3	2	2	4	27	14	
	6	12	3	2	2	3	27	12	
	7	13	2	2	2	3	27	11	
	8	18	2	2	2	3	27	10	
	9	26	2	2	2	3	27	9	
26	1	1	4	4	2	3	13	21	
	2	2	3	3	2	3	11	19	
	3	3	3	3	2	3	10	19	
	4	7	3	3	2	3	9	17	
	5	12	2	2	1	3	7	17	
	6	21	2	2	1	3	7	15	
	7	22	2	1	1	3	5	14	
	8	29	2	1	1	3	4	13	
	9	30	2	1	1	3	2	13	
27	1	1	4	4	4	4	14	25	
	2	2	4	4	4	4	12	25	
	3	3	4	4	4	4	12	24	
	4	9	4	3	3	3	10	24	
	5	10	4	2	2	3	9	25	
	6	11	4	2	2	3	9	24	
	7	19	4	2	2	3	8	24	
	8	26	4	1	1	2	7	23	
	9	30	4	1	1	2	6	23	
28	1	2	4	2	4	3	16	21	
	2	4	4	2	4	2	14	21	
	3	5	4	2	4	2	13	19	
	4	11	4	2	3	2	12	17	
	5	13	4	2	3	2	11	16	
	6	16	4	2	3	1	8	13	
	7	17	4	2	3	1	7	13	
	8	18	4	2	2	1	7	11	
	9	20	4	2	2	1	5	10	
29	1	15	2	3	4	4	17	8	
	2	16	2	3	4	3	17	7	
	3	19	2	3	4	3	16	7	
	4	20	2	3	4	3	16	6	
	5	21	2	2	3	3	15	6	
	6	22	2	2	3	2	15	5	
	7	25	2	2	3	2	15	4	
	8	27	2	2	3	2	14	4	
	9	28	2	2	3	2	14	3	
30	1	1	1	3	4	3	24	21	
	2	7	1	3	4	3	24	20	
	3	8	1	3	4	3	21	19	
	4	18	1	3	4	3	18	19	
	5	19	1	3	3	3	17	18	
	6	21	1	2	3	3	15	18	
	7	23	1	2	2	3	14	17	
	8	24	1	2	2	3	11	17	
	9	25	1	2	2	3	9	17	
31	1	1	4	4	2	4	19	17	
	2	2	3	4	1	4	18	15	
	3	5	3	4	1	4	18	14	
	4	16	3	3	1	4	15	10	
	5	19	3	3	1	3	14	9	
	6	21	3	3	1	3	12	8	
	7	24	3	2	1	3	11	6	
	8	25	3	2	1	3	9	3	
	9	30	3	2	1	3	8	2	
32	1	2	3	4	5	3	20	27	
	2	4	3	4	4	3	17	25	
	3	17	3	4	4	3	15	25	
	4	18	3	4	4	3	14	24	
	5	19	3	4	4	2	13	24	
	6	20	2	4	4	2	10	23	
	7	22	2	4	4	2	8	23	
	8	25	2	4	4	2	6	23	
	9	27	2	4	4	2	3	22	
33	1	4	3	5	3	5	24	16	
	2	5	3	5	3	4	24	16	
	3	14	3	5	3	4	22	16	
	4	16	3	5	3	3	22	15	
	5	17	3	5	3	2	19	15	
	6	23	3	5	2	2	18	15	
	7	24	3	5	2	1	16	14	
	8	25	3	5	2	1	15	14	
	9	26	3	5	2	1	14	14	
34	1	3	4	5	3	3	30	28	
	2	8	3	4	2	3	29	28	
	3	19	3	4	2	3	29	27	
	4	20	3	4	2	2	29	27	
	5	23	3	3	2	2	29	25	
	6	24	2	3	2	2	28	25	
	7	25	2	2	2	1	28	25	
	8	26	2	2	2	1	28	24	
	9	30	2	2	2	1	28	23	
35	1	3	5	1	3	4	20	9	
	2	12	5	1	3	3	19	8	
	3	15	5	1	3	3	19	7	
	4	16	5	1	2	3	19	8	
	5	18	5	1	2	3	18	7	
	6	19	5	1	2	3	18	6	
	7	21	5	1	1	3	18	7	
	8	23	5	1	1	3	17	7	
	9	26	5	1	1	3	17	6	
36	1	1	1	4	4	4	29	23	
	2	6	1	4	4	3	24	21	
	3	7	1	3	4	3	23	19	
	4	8	1	3	4	3	20	18	
	5	14	1	2	3	3	16	18	
	6	15	1	2	3	2	14	16	
	7	16	1	2	3	2	11	15	
	8	17	1	1	2	2	7	14	
	9	28	1	1	2	2	3	14	
37	1	3	3	4	3	2	19	7	
	2	6	3	3	2	2	16	6	
	3	17	3	3	2	2	15	6	
	4	24	3	2	2	2	15	5	
	5	26	2	2	2	2	14	4	
	6	27	2	2	2	2	11	4	
	7	28	2	1	2	2	11	3	
	8	29	2	1	2	2	9	3	
	9	30	2	1	2	2	9	2	
38	1	4	2	3	2	4	19	22	
	2	7	1	3	2	4	16	21	
	3	8	1	3	2	4	13	18	
	4	9	1	3	2	3	11	16	
	5	13	1	3	2	3	9	12	
	6	14	1	3	2	3	7	10	
	7	21	1	3	2	3	6	9	
	8	25	1	3	2	2	3	6	
	9	26	1	3	2	2	3	5	
39	1	2	4	4	4	2	21	30	
	2	4	4	3	3	2	19	29	
	3	14	4	3	3	2	15	27	
	4	17	4	2	2	2	14	27	
	5	18	4	2	2	1	13	26	
	6	19	4	2	2	1	11	25	
	7	20	4	1	2	1	8	24	
	8	21	4	1	1	1	7	23	
	9	25	4	1	1	1	6	23	
40	1	2	3	3	2	3	10	20	
	2	3	2	2	2	3	10	18	
	3	4	2	2	2	3	10	17	
	4	6	2	2	2	3	10	14	
	5	9	1	2	2	3	9	13	
	6	10	1	2	2	3	9	10	
	7	13	1	2	2	3	9	9	
	8	14	1	2	2	3	9	5	
	9	27	1	2	2	3	9	4	
41	1	7	4	5	3	3	22	25	
	2	9	4	4	3	2	20	22	
	3	15	4	4	3	2	19	21	
	4	16	4	3	3	2	16	21	
	5	18	4	3	3	2	15	17	
	6	19	3	2	3	2	15	16	
	7	21	3	1	3	2	13	14	
	8	22	3	1	3	2	10	12	
	9	24	3	1	3	2	9	11	
42	1	11	2	4	3	1	21	1	
	2	13	2	3	3	1	18	2	
	3	14	2	3	3	1	18	1	
	4	16	2	3	3	1	16	1	
	5	17	1	2	3	1	14	1	
	6	18	1	2	3	1	13	2	
	7	19	1	2	3	1	13	1	
	8	20	1	2	3	1	10	1	
	9	23	1	2	3	1	9	1	
43	1	2	5	2	5	5	26	18	
	2	5	5	2	4	4	25	18	
	3	7	5	2	3	4	24	18	
	4	8	5	2	3	4	23	17	
	5	9	5	2	2	3	23	17	
	6	12	5	2	2	3	22	17	
	7	13	5	2	1	3	21	17	
	8	22	5	2	1	3	20	16	
	9	23	5	2	1	3	20	15	
44	1	3	4	1	4	5	21	21	
	2	5	4	1	4	4	19	20	
	3	7	4	1	4	4	18	19	
	4	8	4	1	4	4	17	18	
	5	15	4	1	3	3	16	18	
	6	16	4	1	3	3	14	17	
	7	17	4	1	2	2	14	16	
	8	27	4	1	2	2	13	15	
	9	28	4	1	2	2	12	15	
45	1	2	4	2	5	3	24	29	
	2	5	3	2	4	3	22	27	
	3	6	3	2	4	3	21	27	
	4	7	3	2	4	3	19	25	
	5	8	2	2	4	3	17	25	
	6	9	2	2	4	3	15	23	
	7	13	2	2	4	3	14	22	
	8	27	1	2	4	3	12	22	
	9	29	1	2	4	3	11	21	
46	1	3	3	3	1	4	29	22	
	2	5	3	3	1	4	29	20	
	3	10	3	3	1	3	29	20	
	4	18	3	2	1	3	29	20	
	5	22	3	2	1	3	29	19	
	6	23	3	2	1	2	29	18	
	7	25	3	2	1	1	29	18	
	8	26	3	1	1	1	29	18	
	9	27	3	1	1	1	29	17	
47	1	11	1	2	5	4	21	8	
	2	12	1	2	5	3	20	8	
	3	13	1	2	5	3	18	7	
	4	16	1	2	5	3	18	6	
	5	19	1	2	5	2	17	7	
	6	20	1	2	5	2	16	6	
	7	21	1	2	5	2	16	5	
	8	22	1	2	5	2	15	5	
	9	23	1	2	5	2	14	5	
48	1	1	5	2	4	5	23	15	
	2	2	4	2	3	5	20	15	
	3	5	4	2	3	5	19	15	
	4	10	3	2	3	5	14	14	
	5	17	3	2	2	5	13	14	
	6	19	2	2	2	5	10	14	
	7	22	2	2	1	5	6	13	
	8	26	1	2	1	5	3	13	
	9	27	1	2	1	5	1	13	
49	1	2	4	2	5	3	24	16	
	2	3	3	2	4	3	22	15	
	3	5	3	2	4	3	22	14	
	4	10	3	2	4	3	22	13	
	5	15	3	2	3	3	21	12	
	6	18	3	2	3	2	21	10	
	7	23	3	2	3	2	20	10	
	8	25	3	2	3	2	20	8	
	9	30	3	2	3	2	19	7	
50	1	2	5	4	3	4	27	21	
	2	3	4	4	3	4	24	16	
	3	9	4	4	3	4	23	16	
	4	12	4	3	2	4	22	12	
	5	13	3	2	2	4	21	10	
	6	15	3	2	2	3	20	10	
	7	17	3	1	1	3	17	7	
	8	25	2	1	1	3	16	5	
	9	30	2	1	1	3	15	3	
51	1	2	3	4	5	1	13	23	
	2	4	3	4	4	1	11	22	
	3	11	3	4	4	1	11	21	
	4	13	3	4	3	1	10	21	
	5	14	3	3	3	1	7	21	
	6	15	3	3	3	1	7	20	
	7	22	3	3	3	1	6	19	
	8	24	3	3	2	1	4	19	
	9	27	3	3	2	1	2	19	
52	1	0	0	0	0	0	0	0	
************************************************************************

 RESOURCE AVAILABILITIES 
	R 1	R 2	R 3	R 4	N 1	N 2
	33	34	37	35	931	853

************************************************************************
